p cnf 178 570 
-1  2 0 
-3  2 0 
 1  3 -2 0 
 1 -4 0 
 3 -4 0 
-1 -3  4 0 
 2 -4 0 
-5  6 0 
-7  6 0 
 5  7 -6 0 
 5 -8 0 
 7 -8 0 
-5 -7  8 0 
 6 -8 0 
-2  9 0 
-6  9 0 
 2  6 -9 0 
 2 -10 0 
 6 -10 0 
-2 -6  10 0 
 9 -10 0 
-4  11 0 
-8  11 0 
 4  8 -11 0 
 4 -12 0 
 8 -12 0 
-4 -8  12 0 
 11 -12 0 
-11  13 0 
-10  13 0 
 11  10 -13 0 
 11 -14 0 
 10 -14 0 
-11 -10  14 0 
 13 -14 0 
-15  16 0 
-17  16 0 
 15  17 -16 0 
 15 -18 0 
 17 -18 0 
-15 -17  18 0 
 16 -18 0 
-19  20 0 
-21  20 0 
 19  21 -20 0 
 19 -22 0 
 21 -22 0 
-19 -21  22 0 
 20 -22 0 
-16  23 0 
-20  23 0 
 16  20 -23 0 
 16 -24 0 
 20 -24 0 
-16 -20  24 0 
 23 -24 0 
-18  25 0 
-22  25 0 
 18  22 -25 0 
 18 -26 0 
 22 -26 0 
-18 -22  26 0 
 25 -26 0 
-25  27 0 
-24  27 0 
 25  24 -27 0 
 25 -28 0 
 24 -28 0 
-25 -24  28 0 
 27 -28 0 
-9  29 0 
-23  29 0 
 9  23 -29 0 
 9 -30 0 
 23 -30 0 
-9 -23  30 0 
 29 -30 0 
-14  31 0 
-28  31 0 
 14  28 -31 0 
 14 -32 0 
 28 -32 0 
-14 -28  32 0 
 31 -32 0 
-31  33 0 
-30  33 0 
 31  30 -33 0 
 31 -34 0 
 30 -34 0 
-31 -30  34 0 
 33 -34 0 
-13  35 0 
-27  35 0 
 13  27 -35 0 
 13 -36 0 
 27 -36 0 
-13 -27  36 0 
 35 -36 0 
-12  37 0 
-26  37 0 
 12  26 -37 0 
-12 -26 0 
-37  38 0 
-36  38 0 
 37  36 -38 0 
 37 -39 0 
 36 -39 0 
-37 -36  39 0 
 38 -39 0 
-35  40 0 
-33  40 0 
 35  33 -40 0 
 35 -41 0 
 33 -41 0 
-35 -33  41 0 
 40 -41 0 
-38  42 0 
-34  42 0 
 38  34 -42 0 
 38 -43 0 
 34 -43 0 
-38 -34  43 0 
 42 -43 0 
-39  44 0 
-32  44 0 
 39  32 -44 0 
-39 -32 0 
-45  46 0 
-47  46 0 
 45  47 -46 0 
 45 -48 0 
 47 -48 0 
-45 -47  48 0 
 46 -48 0 
-49  50 0 
-51  50 0 
 49  51 -50 0 
 49 -52 0 
 51 -52 0 
-49 -51  52 0 
 50 -52 0 
-46  53 0 
-50  53 0 
 46  50 -53 0 
 46 -54 0 
 50 -54 0 
-46 -50  54 0 
 53 -54 0 
-48  55 0 
-52  55 0 
 48  52 -55 0 
 48 -56 0 
 52 -56 0 
-48 -52  56 0 
 55 -56 0 
-55  57 0 
-54  57 0 
 55  54 -57 0 
 55 -58 0 
 54 -58 0 
-55 -54  58 0 
 57 -58 0 
-59  60 0 
-61  60 0 
 59  61 -60 0 
 59 -62 0 
 61 -62 0 
-59 -61  62 0 
 60 -62 0 
-63  64 0 
-65  64 0 
 63  65 -64 0 
 63 -66 0 
 65 -66 0 
-63 -65  66 0 
 64 -66 0 
-60  67 0 
-64  67 0 
 60  64 -67 0 
 60 -68 0 
 64 -68 0 
-60 -64  68 0 
 67 -68 0 
-62  69 0 
-66  69 0 
 62  66 -69 0 
 62 -70 0 
 66 -70 0 
-62 -66  70 0 
 69 -70 0 
-69  71 0 
-68  71 0 
 69  68 -71 0 
 69 -72 0 
 68 -72 0 
-69 -68  72 0 
 71 -72 0 
-53  73 0 
-67  73 0 
 53  67 -73 0 
 53 -74 0 
 67 -74 0 
-53 -67  74 0 
 73 -74 0 
-58  75 0 
-72  75 0 
 58  72 -75 0 
 58 -76 0 
 72 -76 0 
-58 -72  76 0 
 75 -76 0 
-75  77 0 
-74  77 0 
 75  74 -77 0 
 75 -78 0 
 74 -78 0 
-75 -74  78 0 
 77 -78 0 
-57  79 0 
-71  79 0 
 57  71 -79 0 
 57 -80 0 
 71 -80 0 
-57 -71  80 0 
 79 -80 0 
-56  81 0 
-70  81 0 
 56  70 -81 0 
-56 -70 0 
-81  82 0 
-80  82 0 
 81  80 -82 0 
 81 -83 0 
 80 -83 0 
-81 -80  83 0 
 82 -83 0 
-79  84 0 
-77  84 0 
 79  77 -84 0 
 79 -85 0 
 77 -85 0 
-79 -77  85 0 
 84 -85 0 
-82  86 0 
-78  86 0 
 82  78 -86 0 
 82 -87 0 
 78 -87 0 
-82 -78  87 0 
 86 -87 0 
-83  88 0 
-76  88 0 
 83  76 -88 0 
-83 -76 0 
 29 -89 0 
 73 -89 0 
-29 -73  89 0 
 90 -89 0 
-43  91 0 
-87  91 0 
 43  87 -91 0 
-43 -87 0 
-91  92 0 
-89  92 0 
 91  89 -92 0 
-91 -89 0 
-41  93 0 
-85  93 0 
 41  85 -93 0 
-41 -85 0 
 93 -94 0 
 92 -94 0 
-93 -92  94 0 
 90 -94 0 
 40 -95 0 
 84 -95 0 
-40 -84  95 0 
 90 -95 0 
-44  96 0 
-88  96 0 
 44  88 -96 0 
-44 -88 0 
-96  97 0 
-95  97 0 
 96  95 -97 0 
-96 -95 0 
-42  98 0 
-86  98 0 
 42  86 -98 0 
-42 -86 0 
-98  99 0 
-97  99 0 
 98  97 -99 0 
-98 -97 0 
-99 -94 0 
-1  100 0 
-3  100 0 
 1  3 -100 0 
 1 -101 0 
 3 -101 0 
-1 -3  101 0 
 100 -101 0 
-5  102 0 
-7  102 0 
 5  7 -102 0 
 5 -103 0 
 7 -103 0 
-5 -7  103 0 
 102 -103 0 
-100  104 0 
-102  104 0 
 100  102 -104 0 
 100 -105 0 
 102 -105 0 
-100 -102  105 0 
 104 -105 0 
-101  106 0 
-103  106 0 
 101  103 -106 0 
 101 -107 0 
 103 -107 0 
-101 -103  107 0 
 106 -107 0 
-106  108 0 
-105  108 0 
 106  105 -108 0 
 106 -109 0 
 105 -109 0 
-106 -105  109 0 
 108 -109 0 
-15  110 0 
-17  110 0 
 15  17 -110 0 
 15 -111 0 
 17 -111 0 
-15 -17  111 0 
 110 -111 0 
-19  112 0 
-21  112 0 
 19  21 -112 0 
 19 -113 0 
 21 -113 0 
-19 -21  113 0 
 112 -113 0 
-110  114 0 
-112  114 0 
 110  112 -114 0 
 110 -115 0 
 112 -115 0 
-110 -112  115 0 
 114 -115 0 
-111  116 0 
-113  116 0 
 111  113 -116 0 
 111 -117 0 
 113 -117 0 
-111 -113  117 0 
 116 -117 0 
-116  118 0 
-115  118 0 
 116  115 -118 0 
 116 -119 0 
 115 -119 0 
-116 -115  119 0 
 118 -119 0 
-104  120 0 
-114  120 0 
 104  114 -120 0 
 104 -121 0 
 114 -121 0 
-104 -114  121 0 
 120 -121 0 
-109  122 0 
-119  122 0 
 109  119 -122 0 
 109 -123 0 
 119 -123 0 
-109 -119  123 0 
 122 -123 0 
-122  124 0 
-121  124 0 
 122  121 -124 0 
 122 -125 0 
 121 -125 0 
-122 -121  125 0 
 124 -125 0 
-108  126 0 
-118  126 0 
 108  118 -126 0 
 108 -127 0 
 118 -127 0 
-108 -118  127 0 
 126 -127 0 
-107  128 0 
-117  128 0 
 107  117 -128 0 
-128  129 0 
-127  129 0 
 128  127 -129 0 
 128 -130 0 
 127 -130 0 
-128 -127  130 0 
 129 -130 0 
-126  131 0 
-124  131 0 
 126  124 -131 0 
 126 -132 0 
 124 -132 0 
-126 -124  132 0 
 131 -132 0 
-129  133 0 
-125  133 0 
 129  125 -133 0 
 129 -134 0 
 125 -134 0 
-129 -125  134 0 
 133 -134 0 
-130  135 0 
-123  135 0 
 130  123 -135 0 
-45  136 0 
-47  136 0 
 45  47 -136 0 
 45 -137 0 
 47 -137 0 
-45 -47  137 0 
 136 -137 0 
-49  138 0 
-51  138 0 
 49  51 -138 0 
 49 -139 0 
 51 -139 0 
-49 -51  139 0 
 138 -139 0 
-136  140 0 
-138  140 0 
 136  138 -140 0 
 136 -141 0 
 138 -141 0 
-136 -138  141 0 
 140 -141 0 
-137  142 0 
-139  142 0 
 137  139 -142 0 
 137 -143 0 
 139 -143 0 
-137 -139  143 0 
 142 -143 0 
-142  144 0 
-141  144 0 
 142  141 -144 0 
 142 -145 0 
 141 -145 0 
-142 -141  145 0 
 144 -145 0 
-59  146 0 
-61  146 0 
 59  61 -146 0 
 59 -147 0 
 61 -147 0 
-59 -61  147 0 
 146 -147 0 
-63  148 0 
-65  148 0 
 63  65 -148 0 
 63 -149 0 
 65 -149 0 
-63 -65  149 0 
 148 -149 0 
-146  150 0 
-148  150 0 
 146  148 -150 0 
 146 -151 0 
 148 -151 0 
-146 -148  151 0 
 150 -151 0 
-147  152 0 
-149  152 0 
 147  149 -152 0 
 147 -153 0 
 149 -153 0 
-147 -149  153 0 
 152 -153 0 
-152  154 0 
-151  154 0 
 152  151 -154 0 
 152 -155 0 
 151 -155 0 
-152 -151  155 0 
 154 -155 0 
-140  156 0 
-150  156 0 
 140  150 -156 0 
 140 -157 0 
 150 -157 0 
-140 -150  157 0 
 156 -157 0 
-145  158 0 
-155  158 0 
 145  155 -158 0 
 145 -159 0 
 155 -159 0 
-145 -155  159 0 
 158 -159 0 
-158  160 0 
-157  160 0 
 158  157 -160 0 
 158 -161 0 
 157 -161 0 
-158 -157  161 0 
 160 -161 0 
-144  162 0 
-154  162 0 
 144  154 -162 0 
 144 -163 0 
 154 -163 0 
-144 -154  163 0 
 162 -163 0 
-143  164 0 
-153  164 0 
 143  153 -164 0 
-164  165 0 
-163  165 0 
 164  163 -165 0 
 164 -166 0 
 163 -166 0 
-164 -163  166 0 
 165 -166 0 
-162  167 0 
-160  167 0 
 162  160 -167 0 
 162 -168 0 
 160 -168 0 
-162 -160  168 0 
 167 -168 0 
-165  169 0 
-161  169 0 
 165  161 -169 0 
 165 -170 0 
 161 -170 0 
-165 -161  170 0 
 169 -170 0 
-166  171 0 
-159  171 0 
 166  159 -171 0 
 120  156 0 
 120 -172 0 
 156 -172 0 
-120 -156  172 0 
 173 -172 0 
-134  174 0 
-170  174 0 
 134  170 -174 0 
 174  172 0 
 132  168 0 
 131  167 0 
 131 -175 0 
 167 -175 0 
-131 -167  175 0 
 173 -175 0 
-135  176 0 
-171  176 0 
 135  171 -176 0 
-176  177 0 
-175  177 0 
 176  175 -177 0 
-133  178 0 
-169  178 0 
 133  169 -178 0 
 178  177 0 
